CMPL model generation - running

CMPL version: 1.11.0
Authors: Thomas Schleiff, Mike Steglich
Distributed under the GPLv3 

create model instance ...
write model instance ...
CMPL model generation - finished

Solver - running


Welcome to IBM(R) ILOG(R) CPLEX(R) Interactive Optimizer 12.7.1.0
  with Simplex, Mixed Integer & Barrier Optimizers
5725-A06 5725-A29 5724-Y48 5724-Y49 5724-Y54 5724-Y55 5655-Y21
Copyright IBM Corp. 1988, 2017.  All Rights Reserved.

Type 'help' for a list of available commands.
Type 'help' followed by a command name for more
information on commands.

CPLEX> Specified objective sense: MINIMIZE
Selected objective  name:  line[1]
Selected RHS        name:  RHS
Selected bound      name:  BOUND
Problem '/tmp/cmpl.T15163.mps' read.
Read time = 0.05 sec. (10.22 ticks)
CPLEX> CPXPARAM_Read_APIEncoding                        "UTF-8"
Tried aggregator 3 times.
MIP Presolve eliminated 22970 rows and 35516 columns.
MIP Presolve modified 631 coefficients.
Aggregator did 1767 substitutions.
Reduced MIP has 3185 rows, 5172 columns, and 15330 nonzeros.
Reduced MIP has 4962 binaries, 0 generals, 0 SOSs, and 0 indicators.
Presolve time = 0.07 sec. (55.90 ticks)
Found incumbent of value 4713.797178 after 0.13 sec. (110.06 ticks)
Probing time = 0.01 sec. (2.76 ticks)
Tried aggregator 1 time.
MIP Presolve eliminated 0 rows and 71 columns.
Reduced MIP has 3185 rows, 5101 columns, and 15188 nonzeros.
Reduced MIP has 5101 binaries, 0 generals, 0 SOSs, and 0 indicators.
Presolve time = 0.02 sec. (14.16 ticks)
Probing time = 0.01 sec. (2.96 ticks)
Clique table members: 4442.
MIP emphasis: balance optimality and feasibility.
MIP search method: dynamic search.
Parallel mode: none, using 1 thread.
Root relaxation solution time = 0.02 sec. (22.95 ticks)

        Nodes                                         Cuts/
   Node  Left     Objective  IInf  Best Integer    Best Bound    ItCnt     Gap

*     0+    0                         4713.7972        0.0000           100.00%
      0     0     2183.9773    12     4713.7972     2183.9773     1277   53.67%
*     0+    0                         2183.9773     2183.9773             0.00%
      0     0        cutoff           2183.9773     2183.9773     1277    0.00%
Elapsed time = 0.22 sec. (193.46 ticks, tree = 0.01 MB, solutions = 2)

Root node processing (before b&c):
  Real time             =    0.22 sec. (195.04 ticks)
Sequential b&c:
  Real time             =    0.00 sec. (0.00 ticks)
                          ------------
Total (root+branch&cut) =    0.22 sec. (195.04 ticks)

Solution pool: 2 solutions saved.

MIP - Integer optimal solution:  Objective =  2.1839773250e+03
Solution time =    0.22 sec.  Iterations = 1277  Nodes = 0
Deterministic time = 195.16 ticks  (875.64 ticks/sec)

CPLEX> Incumbent solution written to file '/tmp/cmpl.T15163.gsol'.
CPLEX> 
CMPL: Time used for model generation: 1 seconds
CMPL: Time used for solving the model: 0 seconds


Solution written to ASCII file: results/output_generated/2016-02-01-5/fair-nonlinear.sol

Solver - finished
